============================[ Problem Statistics ]=============================|                                                                             ||  Number of variables:          4242                                         ||  Number of clauses:            9942                                         ||  Parse time:                   0.34 s                                       ||                                                                             |============================[ Search Statistics ]==============================| Conflicts |          ORIGINAL         |          LEARNT          | Progress ||           |    Vars  Clauses Literals |    Limit  Clauses Lit/Cl |          |===============================================================================|       100 |    1591     6147   527278 |     2253      100     53 | 62.501 % |===============================================================================restarts              : 2conflicts             : 195            (382 /sec)decisions             : 364            (0.00 % random) (712 /sec)propagations          : 10053          (19673 /sec)conflict literals     : 13643          (95.18 % deleted)CPU time              : 0.511 sSATISFIABLE